Route #1: 1 6 47 27 5 7 35 34 1 
Route #2: 1 30 42 40 41 37 29 8 10 1 
Route #3: 1 1 18 20 33 51 44 25 36 1 
Route #4: 1 3 31 24 28 11 21 39 14 12 45 4 38 1 
Route #5: 1 43 2 48 16 9 46 15 49 17 1 
Route #6: 1 23 50 19 13 26 22 1 
Route #7: 1 32 1 

Cost 1269.98
Time 0.4094


 * Another infos *

 Iterations: 52 Time: 0.4094 sec - 0.0068 min - 0.0001 horas
0.0000 h 0.0068 min
Problem dimension: 52
